c *********************************
c * Circuit generated by BenCGen
c *
c * CarryLookaheadBlock_57_57_57_InOutT
c *
c * Ports with 1 gate(s): 2
c * Ports with 2 gate(s): 244
c * Ports with 3 gate(s): 56
c * Ports with 4 gate(s): 42
c * Ports with 5 gate(s): 28
c * Total gates: 372
c *********************************
p cnf 486 1452
1 174 0
-1 -174 0
1 -173 0
174 -173 0
-1 -174 173 0
1 58 -175 0
-1 58 175 0
1 -58 175 0
-1 -58 -175 0
1 -232 0
58 -232 0
-1 -58 232 0
2 59 -176 0
-2 59 176 0
2 -59 176 0
-2 -59 -176 0
2 -233 0
59 -233 0
-2 -59 233 0
3 60 -177 0
-3 60 177 0
3 -60 177 0
-3 -60 -177 0
3 -234 0
60 -234 0
-3 -60 234 0
4 61 -178 0
-4 61 178 0
4 -61 178 0
-4 -61 -178 0
4 -235 0
61 -235 0
-4 -61 235 0
5 62 -179 0
-5 62 179 0
5 -62 179 0
-5 -62 -179 0
5 -236 0
62 -236 0
-5 -62 236 0
6 63 -180 0
-6 63 180 0
6 -63 180 0
-6 -63 -180 0
6 -237 0
63 -237 0
-6 -63 237 0
7 64 -181 0
-7 64 181 0
7 -64 181 0
-7 -64 -181 0
7 -238 0
64 -238 0
-7 -64 238 0
8 65 -182 0
-8 65 182 0
8 -65 182 0
-8 -65 -182 0
8 -239 0
65 -239 0
-8 -65 239 0
9 66 -183 0
-9 66 183 0
9 -66 183 0
-9 -66 -183 0
9 -240 0
66 -240 0
-9 -66 240 0
10 67 -184 0
-10 67 184 0
10 -67 184 0
-10 -67 -184 0
10 -241 0
67 -241 0
-10 -67 241 0
11 68 -185 0
-11 68 185 0
11 -68 185 0
-11 -68 -185 0
11 -242 0
68 -242 0
-11 -68 242 0
12 69 -186 0
-12 69 186 0
12 -69 186 0
-12 -69 -186 0
12 -243 0
69 -243 0
-12 -69 243 0
13 70 -187 0
-13 70 187 0
13 -70 187 0
-13 -70 -187 0
13 -244 0
70 -244 0
-13 -70 244 0
14 71 -188 0
-14 71 188 0
14 -71 188 0
-14 -71 -188 0
14 -245 0
71 -245 0
-14 -71 245 0
15 72 -189 0
-15 72 189 0
15 -72 189 0
-15 -72 -189 0
15 -246 0
72 -246 0
-15 -72 246 0
16 73 -190 0
-16 73 190 0
16 -73 190 0
-16 -73 -190 0
16 -247 0
73 -247 0
-16 -73 247 0
17 74 -191 0
-17 74 191 0
17 -74 191 0
-17 -74 -191 0
17 -248 0
74 -248 0
-17 -74 248 0
18 75 -192 0
-18 75 192 0
18 -75 192 0
-18 -75 -192 0
18 -249 0
75 -249 0
-18 -75 249 0
19 76 -193 0
-19 76 193 0
19 -76 193 0
-19 -76 -193 0
19 -250 0
76 -250 0
-19 -76 250 0
20 77 -194 0
-20 77 194 0
20 -77 194 0
-20 -77 -194 0
20 -251 0
77 -251 0
-20 -77 251 0
21 78 -195 0
-21 78 195 0
21 -78 195 0
-21 -78 -195 0
21 -252 0
78 -252 0
-21 -78 252 0
22 79 -196 0
-22 79 196 0
22 -79 196 0
-22 -79 -196 0
22 -253 0
79 -253 0
-22 -79 253 0
23 80 -197 0
-23 80 197 0
23 -80 197 0
-23 -80 -197 0
23 -254 0
80 -254 0
-23 -80 254 0
24 81 -198 0
-24 81 198 0
24 -81 198 0
-24 -81 -198 0
24 -255 0
81 -255 0
-24 -81 255 0
25 82 -199 0
-25 82 199 0
25 -82 199 0
-25 -82 -199 0
25 -256 0
82 -256 0
-25 -82 256 0
26 83 -200 0
-26 83 200 0
26 -83 200 0
-26 -83 -200 0
26 -257 0
83 -257 0
-26 -83 257 0
27 84 -201 0
-27 84 201 0
27 -84 201 0
-27 -84 -201 0
27 -258 0
84 -258 0
-27 -84 258 0
28 85 -202 0
-28 85 202 0
28 -85 202 0
-28 -85 -202 0
28 -259 0
85 -259 0
-28 -85 259 0
29 86 -203 0
-29 86 203 0
29 -86 203 0
-29 -86 -203 0
29 -260 0
86 -260 0
-29 -86 260 0
30 87 -204 0
-30 87 204 0
30 -87 204 0
-30 -87 -204 0
30 -261 0
87 -261 0
-30 -87 261 0
31 88 -205 0
-31 88 205 0
31 -88 205 0
-31 -88 -205 0
31 -262 0
88 -262 0
-31 -88 262 0
32 89 -206 0
-32 89 206 0
32 -89 206 0
-32 -89 -206 0
32 -263 0
89 -263 0
-32 -89 263 0
33 90 -207 0
-33 90 207 0
33 -90 207 0
-33 -90 -207 0
33 -264 0
90 -264 0
-33 -90 264 0
34 91 -208 0
-34 91 208 0
34 -91 208 0
-34 -91 -208 0
34 -265 0
91 -265 0
-34 -91 265 0
35 92 -209 0
-35 92 209 0
35 -92 209 0
-35 -92 -209 0
35 -266 0
92 -266 0
-35 -92 266 0
36 93 -210 0
-36 93 210 0
36 -93 210 0
-36 -93 -210 0
36 -267 0
93 -267 0
-36 -93 267 0
37 94 -211 0
-37 94 211 0
37 -94 211 0
-37 -94 -211 0
37 -268 0
94 -268 0
-37 -94 268 0
38 95 -212 0
-38 95 212 0
38 -95 212 0
-38 -95 -212 0
38 -269 0
95 -269 0
-38 -95 269 0
39 96 -213 0
-39 96 213 0
39 -96 213 0
-39 -96 -213 0
39 -270 0
96 -270 0
-39 -96 270 0
40 97 -214 0
-40 97 214 0
40 -97 214 0
-40 -97 -214 0
40 -271 0
97 -271 0
-40 -97 271 0
41 98 -215 0
-41 98 215 0
41 -98 215 0
-41 -98 -215 0
41 -272 0
98 -272 0
-41 -98 272 0
42 99 -216 0
-42 99 216 0
42 -99 216 0
-42 -99 -216 0
42 -273 0
99 -273 0
-42 -99 273 0
43 100 -217 0
-43 100 217 0
43 -100 217 0
-43 -100 -217 0
43 -274 0
100 -274 0
-43 -100 274 0
44 101 -218 0
-44 101 218 0
44 -101 218 0
-44 -101 -218 0
44 -275 0
101 -275 0
-44 -101 275 0
45 102 -219 0
-45 102 219 0
45 -102 219 0
-45 -102 -219 0
45 -276 0
102 -276 0
-45 -102 276 0
46 103 -220 0
-46 103 220 0
46 -103 220 0
-46 -103 -220 0
46 -277 0
103 -277 0
-46 -103 277 0
47 104 -221 0
-47 104 221 0
47 -104 221 0
-47 -104 -221 0
47 -278 0
104 -278 0
-47 -104 278 0
48 105 -222 0
-48 105 222 0
48 -105 222 0
-48 -105 -222 0
48 -279 0
105 -279 0
-48 -105 279 0
49 106 -223 0
-49 106 223 0
49 -106 223 0
-49 -106 -223 0
49 -280 0
106 -280 0
-49 -106 280 0
50 107 -224 0
-50 107 224 0
50 -107 224 0
-50 -107 -224 0
50 -281 0
107 -281 0
-50 -107 281 0
51 108 -225 0
-51 108 225 0
51 -108 225 0
-51 -108 -225 0
51 -282 0
108 -282 0
-51 -108 282 0
52 109 -226 0
-52 109 226 0
52 -109 226 0
-52 -109 -226 0
52 -283 0
109 -283 0
-52 -109 283 0
53 110 -227 0
-53 110 227 0
53 -110 227 0
-53 -110 -227 0
53 -284 0
110 -284 0
-53 -110 284 0
54 111 -228 0
-54 111 228 0
54 -111 228 0
-54 -111 -228 0
54 -285 0
111 -285 0
-54 -111 285 0
55 112 -229 0
-55 112 229 0
55 -112 229 0
-55 -112 -229 0
55 -286 0
112 -286 0
-55 -112 286 0
56 113 -230 0
-56 113 230 0
56 -113 230 0
-56 -113 -230 0
56 -287 0
113 -287 0
-56 -113 287 0
57 114 -231 0
-57 114 231 0
57 -114 231 0
-57 -114 -231 0
57 -288 0
114 -288 0
-57 -114 288 0
173 -346 0
175 -346 0
-173 -175 346 0
173 -347 0
175 -347 0
176 -347 0
-173 -175 -176 347 0
232 -348 0
176 -348 0
-232 -176 348 0
173 -349 0
175 -349 0
176 -349 0
177 -349 0
-173 -175 -176 -177 349 0
232 -350 0
176 -350 0
177 -350 0
-232 -176 -177 350 0
233 -351 0
177 -351 0
-233 -177 351 0
173 -352 0
175 -352 0
176 -352 0
177 -352 0
178 -352 0
-173 -175 -176 -177 -178 352 0
232 -353 0
176 -353 0
177 -353 0
178 -353 0
-232 -176 -177 -178 353 0
233 -354 0
177 -354 0
178 -354 0
-233 -177 -178 354 0
234 -355 0
178 -355 0
-234 -178 355 0
-232 289 0
-346 289 0
232 346 -289 0
-233 290 0
-347 290 0
-348 290 0
233 347 348 -290 0
-234 291 0
-349 291 0
-350 291 0
-351 291 0
234 349 350 351 -291 0
-235 292 0
-352 292 0
-353 292 0
-354 292 0
-355 292 0
235 352 353 354 355 -292 0
292 -356 0
179 -356 0
-292 -179 356 0
292 -357 0
179 -357 0
180 -357 0
-292 -179 -180 357 0
236 -358 0
180 -358 0
-236 -180 358 0
292 -359 0
179 -359 0
180 -359 0
181 -359 0
-292 -179 -180 -181 359 0
236 -360 0
180 -360 0
181 -360 0
-236 -180 -181 360 0
237 -361 0
181 -361 0
-237 -181 361 0
292 -362 0
179 -362 0
180 -362 0
181 -362 0
182 -362 0
-292 -179 -180 -181 -182 362 0
236 -363 0
180 -363 0
181 -363 0
182 -363 0
-236 -180 -181 -182 363 0
237 -364 0
181 -364 0
182 -364 0
-237 -181 -182 364 0
238 -365 0
182 -365 0
-238 -182 365 0
-236 293 0
-356 293 0
236 356 -293 0
-237 294 0
-357 294 0
-358 294 0
237 357 358 -294 0
-238 295 0
-359 295 0
-360 295 0
-361 295 0
238 359 360 361 -295 0
-239 296 0
-362 296 0
-363 296 0
-364 296 0
-365 296 0
239 362 363 364 365 -296 0
296 -366 0
183 -366 0
-296 -183 366 0
296 -367 0
183 -367 0
184 -367 0
-296 -183 -184 367 0
240 -368 0
184 -368 0
-240 -184 368 0
296 -369 0
183 -369 0
184 -369 0
185 -369 0
-296 -183 -184 -185 369 0
240 -370 0
184 -370 0
185 -370 0
-240 -184 -185 370 0
241 -371 0
185 -371 0
-241 -185 371 0
296 -372 0
183 -372 0
184 -372 0
185 -372 0
186 -372 0
-296 -183 -184 -185 -186 372 0
240 -373 0
184 -373 0
185 -373 0
186 -373 0
-240 -184 -185 -186 373 0
241 -374 0
185 -374 0
186 -374 0
-241 -185 -186 374 0
242 -375 0
186 -375 0
-242 -186 375 0
-240 297 0
-366 297 0
240 366 -297 0
-241 298 0
-367 298 0
-368 298 0
241 367 368 -298 0
-242 299 0
-369 299 0
-370 299 0
-371 299 0
242 369 370 371 -299 0
-243 300 0
-372 300 0
-373 300 0
-374 300 0
-375 300 0
243 372 373 374 375 -300 0
300 -376 0
187 -376 0
-300 -187 376 0
300 -377 0
187 -377 0
188 -377 0
-300 -187 -188 377 0
244 -378 0
188 -378 0
-244 -188 378 0
300 -379 0
187 -379 0
188 -379 0
189 -379 0
-300 -187 -188 -189 379 0
244 -380 0
188 -380 0
189 -380 0
-244 -188 -189 380 0
245 -381 0
189 -381 0
-245 -189 381 0
300 -382 0
187 -382 0
188 -382 0
189 -382 0
190 -382 0
-300 -187 -188 -189 -190 382 0
244 -383 0
188 -383 0
189 -383 0
190 -383 0
-244 -188 -189 -190 383 0
245 -384 0
189 -384 0
190 -384 0
-245 -189 -190 384 0
246 -385 0
190 -385 0
-246 -190 385 0
-244 301 0
-376 301 0
244 376 -301 0
-245 302 0
-377 302 0
-378 302 0
245 377 378 -302 0
-246 303 0
-379 303 0
-380 303 0
-381 303 0
246 379 380 381 -303 0
-247 304 0
-382 304 0
-383 304 0
-384 304 0
-385 304 0
247 382 383 384 385 -304 0
304 -386 0
191 -386 0
-304 -191 386 0
304 -387 0
191 -387 0
192 -387 0
-304 -191 -192 387 0
248 -388 0
192 -388 0
-248 -192 388 0
304 -389 0
191 -389 0
192 -389 0
193 -389 0
-304 -191 -192 -193 389 0
248 -390 0
192 -390 0
193 -390 0
-248 -192 -193 390 0
249 -391 0
193 -391 0
-249 -193 391 0
304 -392 0
191 -392 0
192 -392 0
193 -392 0
194 -392 0
-304 -191 -192 -193 -194 392 0
248 -393 0
192 -393 0
193 -393 0
194 -393 0
-248 -192 -193 -194 393 0
249 -394 0
193 -394 0
194 -394 0
-249 -193 -194 394 0
250 -395 0
194 -395 0
-250 -194 395 0
-248 305 0
-386 305 0
248 386 -305 0
-249 306 0
-387 306 0
-388 306 0
249 387 388 -306 0
-250 307 0
-389 307 0
-390 307 0
-391 307 0
250 389 390 391 -307 0
-251 308 0
-392 308 0
-393 308 0
-394 308 0
-395 308 0
251 392 393 394 395 -308 0
308 -396 0
195 -396 0
-308 -195 396 0
308 -397 0
195 -397 0
196 -397 0
-308 -195 -196 397 0
252 -398 0
196 -398 0
-252 -196 398 0
308 -399 0
195 -399 0
196 -399 0
197 -399 0
-308 -195 -196 -197 399 0
252 -400 0
196 -400 0
197 -400 0
-252 -196 -197 400 0
253 -401 0
197 -401 0
-253 -197 401 0
308 -402 0
195 -402 0
196 -402 0
197 -402 0
198 -402 0
-308 -195 -196 -197 -198 402 0
252 -403 0
196 -403 0
197 -403 0
198 -403 0
-252 -196 -197 -198 403 0
253 -404 0
197 -404 0
198 -404 0
-253 -197 -198 404 0
254 -405 0
198 -405 0
-254 -198 405 0
-252 309 0
-396 309 0
252 396 -309 0
-253 310 0
-397 310 0
-398 310 0
253 397 398 -310 0
-254 311 0
-399 311 0
-400 311 0
-401 311 0
254 399 400 401 -311 0
-255 312 0
-402 312 0
-403 312 0
-404 312 0
-405 312 0
255 402 403 404 405 -312 0
312 -406 0
199 -406 0
-312 -199 406 0
312 -407 0
199 -407 0
200 -407 0
-312 -199 -200 407 0
256 -408 0
200 -408 0
-256 -200 408 0
312 -409 0
199 -409 0
200 -409 0
201 -409 0
-312 -199 -200 -201 409 0
256 -410 0
200 -410 0
201 -410 0
-256 -200 -201 410 0
257 -411 0
201 -411 0
-257 -201 411 0
312 -412 0
199 -412 0
200 -412 0
201 -412 0
202 -412 0
-312 -199 -200 -201 -202 412 0
256 -413 0
200 -413 0
201 -413 0
202 -413 0
-256 -200 -201 -202 413 0
257 -414 0
201 -414 0
202 -414 0
-257 -201 -202 414 0
258 -415 0
202 -415 0
-258 -202 415 0
-256 313 0
-406 313 0
256 406 -313 0
-257 314 0
-407 314 0
-408 314 0
257 407 408 -314 0
-258 315 0
-409 315 0
-410 315 0
-411 315 0
258 409 410 411 -315 0
-259 316 0
-412 316 0
-413 316 0
-414 316 0
-415 316 0
259 412 413 414 415 -316 0
316 -416 0
203 -416 0
-316 -203 416 0
316 -417 0
203 -417 0
204 -417 0
-316 -203 -204 417 0
260 -418 0
204 -418 0
-260 -204 418 0
316 -419 0
203 -419 0
204 -419 0
205 -419 0
-316 -203 -204 -205 419 0
260 -420 0
204 -420 0
205 -420 0
-260 -204 -205 420 0
261 -421 0
205 -421 0
-261 -205 421 0
316 -422 0
203 -422 0
204 -422 0
205 -422 0
206 -422 0
-316 -203 -204 -205 -206 422 0
260 -423 0
204 -423 0
205 -423 0
206 -423 0
-260 -204 -205 -206 423 0
261 -424 0
205 -424 0
206 -424 0
-261 -205 -206 424 0
262 -425 0
206 -425 0
-262 -206 425 0
-260 317 0
-416 317 0
260 416 -317 0
-261 318 0
-417 318 0
-418 318 0
261 417 418 -318 0
-262 319 0
-419 319 0
-420 319 0
-421 319 0
262 419 420 421 -319 0
-263 320 0
-422 320 0
-423 320 0
-424 320 0
-425 320 0
263 422 423 424 425 -320 0
320 -426 0
207 -426 0
-320 -207 426 0
320 -427 0
207 -427 0
208 -427 0
-320 -207 -208 427 0
264 -428 0
208 -428 0
-264 -208 428 0
320 -429 0
207 -429 0
208 -429 0
209 -429 0
-320 -207 -208 -209 429 0
264 -430 0
208 -430 0
209 -430 0
-264 -208 -209 430 0
265 -431 0
209 -431 0
-265 -209 431 0
320 -432 0
207 -432 0
208 -432 0
209 -432 0
210 -432 0
-320 -207 -208 -209 -210 432 0
264 -433 0
208 -433 0
209 -433 0
210 -433 0
-264 -208 -209 -210 433 0
265 -434 0
209 -434 0
210 -434 0
-265 -209 -210 434 0
266 -435 0
210 -435 0
-266 -210 435 0
-264 321 0
-426 321 0
264 426 -321 0
-265 322 0
-427 322 0
-428 322 0
265 427 428 -322 0
-266 323 0
-429 323 0
-430 323 0
-431 323 0
266 429 430 431 -323 0
-267 324 0
-432 324 0
-433 324 0
-434 324 0
-435 324 0
267 432 433 434 435 -324 0
324 -436 0
211 -436 0
-324 -211 436 0
324 -437 0
211 -437 0
212 -437 0
-324 -211 -212 437 0
268 -438 0
212 -438 0
-268 -212 438 0
324 -439 0
211 -439 0
212 -439 0
213 -439 0
-324 -211 -212 -213 439 0
268 -440 0
212 -440 0
213 -440 0
-268 -212 -213 440 0
269 -441 0
213 -441 0
-269 -213 441 0
324 -442 0
211 -442 0
212 -442 0
213 -442 0
214 -442 0
-324 -211 -212 -213 -214 442 0
268 -443 0
212 -443 0
213 -443 0
214 -443 0
-268 -212 -213 -214 443 0
269 -444 0
213 -444 0
214 -444 0
-269 -213 -214 444 0
270 -445 0
214 -445 0
-270 -214 445 0
-268 325 0
-436 325 0
268 436 -325 0
-269 326 0
-437 326 0
-438 326 0
269 437 438 -326 0
-270 327 0
-439 327 0
-440 327 0
-441 327 0
270 439 440 441 -327 0
-271 328 0
-442 328 0
-443 328 0
-444 328 0
-445 328 0
271 442 443 444 445 -328 0
328 -446 0
215 -446 0
-328 -215 446 0
328 -447 0
215 -447 0
216 -447 0
-328 -215 -216 447 0
272 -448 0
216 -448 0
-272 -216 448 0
328 -449 0
215 -449 0
216 -449 0
217 -449 0
-328 -215 -216 -217 449 0
272 -450 0
216 -450 0
217 -450 0
-272 -216 -217 450 0
273 -451 0
217 -451 0
-273 -217 451 0
328 -452 0
215 -452 0
216 -452 0
217 -452 0
218 -452 0
-328 -215 -216 -217 -218 452 0
272 -453 0
216 -453 0
217 -453 0
218 -453 0
-272 -216 -217 -218 453 0
273 -454 0
217 -454 0
218 -454 0
-273 -217 -218 454 0
274 -455 0
218 -455 0
-274 -218 455 0
-272 329 0
-446 329 0
272 446 -329 0
-273 330 0
-447 330 0
-448 330 0
273 447 448 -330 0
-274 331 0
-449 331 0
-450 331 0
-451 331 0
274 449 450 451 -331 0
-275 332 0
-452 332 0
-453 332 0
-454 332 0
-455 332 0
275 452 453 454 455 -332 0
332 -456 0
219 -456 0
-332 -219 456 0
332 -457 0
219 -457 0
220 -457 0
-332 -219 -220 457 0
276 -458 0
220 -458 0
-276 -220 458 0
332 -459 0
219 -459 0
220 -459 0
221 -459 0
-332 -219 -220 -221 459 0
276 -460 0
220 -460 0
221 -460 0
-276 -220 -221 460 0
277 -461 0
221 -461 0
-277 -221 461 0
332 -462 0
219 -462 0
220 -462 0
221 -462 0
222 -462 0
-332 -219 -220 -221 -222 462 0
276 -463 0
220 -463 0
221 -463 0
222 -463 0
-276 -220 -221 -222 463 0
277 -464 0
221 -464 0
222 -464 0
-277 -221 -222 464 0
278 -465 0
222 -465 0
-278 -222 465 0
-276 333 0
-456 333 0
276 456 -333 0
-277 334 0
-457 334 0
-458 334 0
277 457 458 -334 0
-278 335 0
-459 335 0
-460 335 0
-461 335 0
278 459 460 461 -335 0
-279 336 0
-462 336 0
-463 336 0
-464 336 0
-465 336 0
279 462 463 464 465 -336 0
336 -466 0
223 -466 0
-336 -223 466 0
336 -467 0
223 -467 0
224 -467 0
-336 -223 -224 467 0
280 -468 0
224 -468 0
-280 -224 468 0
336 -469 0
223 -469 0
224 -469 0
225 -469 0
-336 -223 -224 -225 469 0
280 -470 0
224 -470 0
225 -470 0
-280 -224 -225 470 0
281 -471 0
225 -471 0
-281 -225 471 0
336 -472 0
223 -472 0
224 -472 0
225 -472 0
226 -472 0
-336 -223 -224 -225 -226 472 0
280 -473 0
224 -473 0
225 -473 0
226 -473 0
-280 -224 -225 -226 473 0
281 -474 0
225 -474 0
226 -474 0
-281 -225 -226 474 0
282 -475 0
226 -475 0
-282 -226 475 0
-280 337 0
-466 337 0
280 466 -337 0
-281 338 0
-467 338 0
-468 338 0
281 467 468 -338 0
-282 339 0
-469 339 0
-470 339 0
-471 339 0
282 469 470 471 -339 0
-283 340 0
-472 340 0
-473 340 0
-474 340 0
-475 340 0
283 472 473 474 475 -340 0
340 -476 0
227 -476 0
-340 -227 476 0
340 -477 0
227 -477 0
228 -477 0
-340 -227 -228 477 0
284 -478 0
228 -478 0
-284 -228 478 0
340 -479 0
227 -479 0
228 -479 0
229 -479 0
-340 -227 -228 -229 479 0
284 -480 0
228 -480 0
229 -480 0
-284 -228 -229 480 0
285 -481 0
229 -481 0
-285 -229 481 0
340 -482 0
227 -482 0
228 -482 0
229 -482 0
230 -482 0
-340 -227 -228 -229 -230 482 0
284 -483 0
228 -483 0
229 -483 0
230 -483 0
-284 -228 -229 -230 483 0
285 -484 0
229 -484 0
230 -484 0
-285 -229 -230 484 0
286 -485 0
230 -485 0
-286 -230 485 0
-284 341 0
-476 341 0
284 476 -341 0
-285 342 0
-477 342 0
-478 342 0
285 477 478 -342 0
-286 343 0
-479 343 0
-480 343 0
-481 343 0
286 479 480 481 -343 0
-287 344 0
-482 344 0
-483 344 0
-484 344 0
-485 344 0
287 482 483 484 485 -344 0
344 -486 0
231 -486 0
-344 -231 486 0
-288 345 0
-486 345 0
288 486 -345 0
175 173 -115 0
-175 173 115 0
175 -173 115 0
-175 -173 -115 0
176 289 -116 0
-176 289 116 0
176 -289 116 0
-176 -289 -116 0
177 290 -117 0
-177 290 117 0
177 -290 117 0
-177 -290 -117 0
178 291 -118 0
-178 291 118 0
178 -291 118 0
-178 -291 -118 0
179 292 -119 0
-179 292 119 0
179 -292 119 0
-179 -292 -119 0
180 293 -120 0
-180 293 120 0
180 -293 120 0
-180 -293 -120 0
181 294 -121 0
-181 294 121 0
181 -294 121 0
-181 -294 -121 0
182 295 -122 0
-182 295 122 0
182 -295 122 0
-182 -295 -122 0
183 296 -123 0
-183 296 123 0
183 -296 123 0
-183 -296 -123 0
184 297 -124 0
-184 297 124 0
184 -297 124 0
-184 -297 -124 0
185 298 -125 0
-185 298 125 0
185 -298 125 0
-185 -298 -125 0
186 299 -126 0
-186 299 126 0
186 -299 126 0
-186 -299 -126 0
187 300 -127 0
-187 300 127 0
187 -300 127 0
-187 -300 -127 0
188 301 -128 0
-188 301 128 0
188 -301 128 0
-188 -301 -128 0
189 302 -129 0
-189 302 129 0
189 -302 129 0
-189 -302 -129 0
190 303 -130 0
-190 303 130 0
190 -303 130 0
-190 -303 -130 0
191 304 -131 0
-191 304 131 0
191 -304 131 0
-191 -304 -131 0
192 305 -132 0
-192 305 132 0
192 -305 132 0
-192 -305 -132 0
193 306 -133 0
-193 306 133 0
193 -306 133 0
-193 -306 -133 0
194 307 -134 0
-194 307 134 0
194 -307 134 0
-194 -307 -134 0
195 308 -135 0
-195 308 135 0
195 -308 135 0
-195 -308 -135 0
196 309 -136 0
-196 309 136 0
196 -309 136 0
-196 -309 -136 0
197 310 -137 0
-197 310 137 0
197 -310 137 0
-197 -310 -137 0
198 311 -138 0
-198 311 138 0
198 -311 138 0
-198 -311 -138 0
199 312 -139 0
-199 312 139 0
199 -312 139 0
-199 -312 -139 0
200 313 -140 0
-200 313 140 0
200 -313 140 0
-200 -313 -140 0
201 314 -141 0
-201 314 141 0
201 -314 141 0
-201 -314 -141 0
202 315 -142 0
-202 315 142 0
202 -315 142 0
-202 -315 -142 0
203 316 -143 0
-203 316 143 0
203 -316 143 0
-203 -316 -143 0
204 317 -144 0
-204 317 144 0
204 -317 144 0
-204 -317 -144 0
205 318 -145 0
-205 318 145 0
205 -318 145 0
-205 -318 -145 0
206 319 -146 0
-206 319 146 0
206 -319 146 0
-206 -319 -146 0
207 320 -147 0
-207 320 147 0
207 -320 147 0
-207 -320 -147 0
208 321 -148 0
-208 321 148 0
208 -321 148 0
-208 -321 -148 0
209 322 -149 0
-209 322 149 0
209 -322 149 0
-209 -322 -149 0
210 323 -150 0
-210 323 150 0
210 -323 150 0
-210 -323 -150 0
211 324 -151 0
-211 324 151 0
211 -324 151 0
-211 -324 -151 0
212 325 -152 0
-212 325 152 0
212 -325 152 0
-212 -325 -152 0
213 326 -153 0
-213 326 153 0
213 -326 153 0
-213 -326 -153 0
214 327 -154 0
-214 327 154 0
214 -327 154 0
-214 -327 -154 0
215 328 -155 0
-215 328 155 0
215 -328 155 0
-215 -328 -155 0
216 329 -156 0
-216 329 156 0
216 -329 156 0
-216 -329 -156 0
217 330 -157 0
-217 330 157 0
217 -330 157 0
-217 -330 -157 0
218 331 -158 0
-218 331 158 0
218 -331 158 0
-218 -331 -158 0
219 332 -159 0
-219 332 159 0
219 -332 159 0
-219 -332 -159 0
220 333 -160 0
-220 333 160 0
220 -333 160 0
-220 -333 -160 0
221 334 -161 0
-221 334 161 0
221 -334 161 0
-221 -334 -161 0
222 335 -162 0
-222 335 162 0
222 -335 162 0
-222 -335 -162 0
223 336 -163 0
-223 336 163 0
223 -336 163 0
-223 -336 -163 0
224 337 -164 0
-224 337 164 0
224 -337 164 0
-224 -337 -164 0
225 338 -165 0
-225 338 165 0
225 -338 165 0
-225 -338 -165 0
226 339 -166 0
-226 339 166 0
226 -339 166 0
-226 -339 -166 0
227 340 -167 0
-227 340 167 0
227 -340 167 0
-227 -340 -167 0
228 341 -168 0
-228 341 168 0
228 -341 168 0
-228 -341 -168 0
229 342 -169 0
-229 342 169 0
229 -342 169 0
-229 -342 -169 0
230 343 -170 0
-230 343 170 0
230 -343 170 0
-230 -343 -170 0
231 344 -171 0
-231 344 171 0
231 -344 171 0
-231 -344 -171 0
345 -172 0
-345 172 0
